435,67
737,51
681,136
593,285
660,385
655,419
639,672
317,670
618,469
664,430
474,374
471,406
504,59
542,-21
390,195
653,415
709,415
963,794
829,862
716,358
766,433
937,489
909,332
762,246
875,265
1028,229
1194,240
921,406
977,452
